Route #1: 1 2 10 17 11 18 3 12 4 13 19 5 14 6 7 8 15 9 16 28 35 27 26 21 20 33 34 44 45 46 47 53 60 59 67 58 52 51 40 25 32 24 31 39 43 56 42 38 23 22 37 49 55 64 69 80 68 63 48 36 30 29 41 54 61 62 74 79 91 86 99 100 92 93 87 88 75 81 94 89 76 70 65 50 57 66 71 82 83 95 96 84 85 77 72 73 78 90 98 97
Cost 44879
